certificates/rado_a14_c234_N39.cnf
c Rad2 upper bound instance: x1 + 14*x2 - x3 = 234, interval [1,39]
p cnf 39 216
1 5 17 0
-1 -5 -17 0
1 18 19 0
-1 -18 -19 0
1 19 33 0
-1 -19 -33 0
2 6 17 0
-2 -6 -17 0
2 18 20 0
-2 -18 -20 0
2 19 34 0
-2 -19 -34 0
3 7 17 0
-3 -7 -17 0
3 18 21 0
-3 -18 -21 0
3 19 35 0
-3 -19 -35 0
4 8 17 0
-4 -8 -17 0
4 18 22 0
-4 -18 -22 0
4 19 36 0
-4 -19 -36 0
5 9 17 0
-5 -9 -17 0
5 18 23 0
-5 -18 -23 0
5 19 37 0
-5 -19 -37 0
6 10 17 0
-6 -10 -17 0
6 18 24 0
-6 -18 -24 0
6 19 38 0
-6 -19 -38 0
7 11 17 0
-7 -11 -17 0
7 18 25 0
-7 -18 -25 0
7 19 39 0
-7 -19 -39 0
8 12 17 0
-8 -12 -17 0
8 18 26 0
-8 -18 -26 0
9 13 17 0
-9 -13 -17 0
9 18 27 0
-9 -18 -27 0
10 14 17 0
-10 -14 -17 0
10 18 28 0
-10 -18 -28 0
1 11 16 0
-1 -11 -16 0
11 15 17 0
-11 -15 -17 0
11 18 29 0
-11 -18 -29 0
2 12 16 0
-2 -12 -16 0
12 16 17 0
-12 -16 -17 0
12 18 30 0
-12 -18 -30 0
3 13 16 0
-3 -13 -16 0
13 17 0
-13 -17 0
13 18 31 0
-13 -18 -31 0
4 14 16 0
-4 -14 -16 0
14 17 18 0
-14 -17 -18 0
14 18 32 0
-14 -18 -32 0
5 15 16 0
-5 -15 -16 0
15 17 19 0
-15 -17 -19 0
15 18 33 0
-15 -18 -33 0
6 16 0
-6 -16 0
16 17 20 0
-16 -17 -20 0
16 18 34 0
-16 -18 -34 0
7 16 17 0
-7 -16 -17 0
17 21 0
-17 -21 0
17 18 35 0
-17 -18 -35 0
8 16 18 0
-8 -16 -18 0
17 18 22 0
-17 -18 -22 0
18 36 0
-18 -36 0
9 16 19 0
-9 -16 -19 0
17 19 23 0
-17 -19 -23 0
18 19 37 0
-18 -19 -37 0
10 16 20 0
-10 -16 -20 0
17 20 24 0
-17 -20 -24 0
18 20 38 0
-18 -20 -38 0
11 16 21 0
-11 -16 -21 0
17 21 25 0
-17 -21 -25 0
18 21 39 0
-18 -21 -39 0
12 16 22 0
-12 -16 -22 0
17 22 26 0
-17 -22 -26 0
13 16 23 0
-13 -16 -23 0
17 23 27 0
-17 -23 -27 0
14 16 24 0
-14 -16 -24 0
17 24 28 0
-17 -24 -28 0
1 15 25 0
-1 -15 -25 0
15 16 25 0
-15 -16 -25 0
17 25 29 0
-17 -25 -29 0
2 15 26 0
-2 -15 -26 0
16 26 0
-16 -26 0
17 26 30 0
-17 -26 -30 0
3 15 27 0
-3 -15 -27 0
16 17 27 0
-16 -17 -27 0
17 27 31 0
-17 -27 -31 0
4 15 28 0
-4 -15 -28 0
16 18 28 0
-16 -18 -28 0
17 28 32 0
-17 -28 -32 0
5 15 29 0
-5 -15 -29 0
16 19 29 0
-16 -19 -29 0
17 29 33 0
-17 -29 -33 0
6 15 30 0
-6 -15 -30 0
16 20 30 0
-16 -20 -30 0
17 30 34 0
-17 -30 -34 0
7 15 31 0
-7 -15 -31 0
16 21 31 0
-16 -21 -31 0
17 31 35 0
-17 -31 -35 0
8 15 32 0
-8 -15 -32 0
16 22 32 0
-16 -22 -32 0
17 32 36 0
-17 -32 -36 0
9 15 33 0
-9 -15 -33 0
16 23 33 0
-16 -23 -33 0
17 33 37 0
-17 -33 -37 0
10 15 34 0
-10 -15 -34 0
16 24 34 0
-16 -24 -34 0
17 34 38 0
-17 -34 -38 0
11 15 35 0
-11 -15 -35 0
16 25 35 0
-16 -25 -35 0
17 35 39 0
-17 -35 -39 0
12 15 36 0
-12 -15 -36 0
16 26 36 0
-16 -26 -36 0
13 15 37 0
-13 -15 -37 0
16 27 37 0
-16 -27 -37 0
14 15 38 0
-14 -15 -38 0
16 28 38 0
-16 -28 -38 0
1 14 39 0
-1 -14 -39 0
15 39 0
-15 -39 0
16 29 39 0
-16 -29 -39 0
