certificates/rado_a14_c234_N39.drat
17 -38 15 0
33 -11 -17 15 0
-17 -39 0
-39 0
15 0
-17 38 0
38 0
-14 0
1 0
-25 0
17 0
-13 0
-21 0
-11 0
-19 0
-34 0
-5 0
18 0
16 0
7 0
2 0
37 0
-36 0
-20 0
-33 0
-35 0
-22 0
-12 0
-6 0
0
